
Gurobi 13.0.2 (win64) logging started Fri Jul 24 05:56:26 2026

Set parameter LogFile to value "E:\codes\ExactEBRP\results\gf_c0_mechanism_transfer_c5_round30\runs\stage1__V12_M2__c4_candidate__300s\external\native_logs\L2.0.1.1.0.1.0.1.0_terminal_mip.gurobi.log"
Gurobi Optimizer version 13.0.2 build v13.0.2rc1 (win64 - Windows 10.0 (19045.2))

CPU model: 12th Gen Intel(R) Core(TM) i7-12700KF, instruction set [SSE2|AVX|AVX2]
Thread count: 12 physical cores, 20 logical processors, using up to 1 threads

Non-default parameters:
TimeLimit  183.152724
MIPGap  0
MIPGapAbs  0
LogToConsole  0
Threads  1

Optimize a model with 11351 rows, 1034 columns and 113600 nonzeros (Min)
Model fingerprint: 0x1aae5c4d
Model has 13 linear objective coefficients
Variable types: 516 continuous, 518 integer (434 binary)
Coefficient statistics:
  Matrix range     [5e-05, 1e+05]
  Objective range  [5e-05, 1e+00]
  Bounds range     [4e-01, 3e+02]
  RHS range        [2e-01, 1e+06]

Presolve removed 1185 rows and 33 columns
Presolve time: 0.29s
Presolved: 10166 rows, 1001 columns, 136490 nonzeros
Variable types: 487 continuous, 514 integer (430 binary)
Root relaxation presolved: 10127 rows, 978 columns, 136403 nonzeros


Root relaxation: objective 6.533176e-01, 1247 iterations, 0.16 seconds (0.50 work units)

    Nodes    |    Current Node    |     Objective Bounds      |     Work
 Expl Unexpl |  Obj  Depth IntInf | Incumbent    BestBd   Gap | It/Node Time

     0     0    0.65332    0  146          -    0.65332      -     -    0s
     0     0    0.66460    0  130          -    0.66460      -     -    0s
     0     0    0.66687    0  119          -    0.66687      -     -    0s
     0     0    0.66779    0  141          -    0.66779      -     -    1s
     0     0    0.66814    0  146          -    0.66814      -     -    1s
     0     0    0.66978    0  159          -    0.66978      -     -    1s
     0     0    0.67019    0  153          -    0.67019      -     -    1s
     0     0    0.67154    0  152          -    0.67154      -     -    2s
     0     0    0.67160    0  144          -    0.67160      -     -    2s
     0     0    0.67214    0  140          -    0.67214      -     -    2s
     0     0    0.67220    0  136          -    0.67220      -     -    2s
     0     0    0.67254    0  140          -    0.67254      -     -    2s
     0     0    0.67264    0  147          -    0.67264      -     -    2s
     0     0    0.67318    0  145          -    0.67318      -     -    3s
     0     0    0.67326    0  166          -    0.67326      -     -    3s
     0     0    0.67338    0  150          -    0.67338      -     -    3s
     0     0    0.67343    0  153          -    0.67343      -     -    3s
     0     0    0.67351    0  177          -    0.67351      -     -    4s
     0     0    0.67352    0  176          -    0.67352      -     -    4s
     0     0    0.67355    0  156          -    0.67355      -     -    4s
     0     0    0.67357    0  158          -    0.67357      -     -    4s
     0     0    0.67360    0  182          -    0.67360      -     -    5s
     0     0    0.67361    0  183          -    0.67361      -     -    5s
     0     0    0.67362    0  156          -    0.67362      -     -    5s
     0     0    0.67364    0  162          -    0.67364      -     -    5s
     0     0    0.67366    0  159          -    0.67366      -     -    5s
     0     0    0.67367    0  180          -    0.67367      -     -    5s
     0     0    0.67404    0  191          -    0.67404      -     -    6s
     0     0    0.67408    0  160          -    0.67408      -     -    6s
     0     0    0.67408    0  164          -    0.67408      -     -    6s
     0     0    0.67408    0  162          -    0.67408      -     -    6s
     0     0    0.67410    0  191          -    0.67410      -     -    6s
     0     0    0.67412    0  164          -    0.67412      -     -    6s
     0     0    0.67414    0  179          -    0.67414      -     -    6s
     0     0    0.67414    0  166          -    0.67414      -     -    6s
     0     0    0.67427    0  168          -    0.67427      -     -    7s
     0     0    0.67433    0  167          -    0.67433      -     -    7s
     0     0    0.67444    0  179          -    0.67444      -     -    7s
     0     0    0.67446    0  160          -    0.67446      -     -    8s
     0     0    0.67452    0  174          -    0.67452      -     -    8s
     0     0    0.67455    0  183          -    0.67455      -     -    8s
     0     0    0.67458    0  175          -    0.67458      -     -    8s
     0     0    0.67459    0  187          -    0.67459      -     -    8s
     0     0    0.67459    0  191          -    0.67459      -     -    8s
     0     0    0.67459    0  190          -    0.67459      -     -    8s
     0     0    0.67459    0  190          -    0.67459      -     -    9s
     0     0    0.67460    0  189          -    0.67460      -     -    9s
     0     0    0.67460    0  187          -    0.67460      -     -    9s
     0     2    0.67462    0  187          -    0.67462      -     -   10s

Cutting planes:
  Learned: 8
  Cover: 17
  Implied bound: 60
  Clique: 10
  MIR: 47
  StrongCG: 2
  Flow cover: 25
  Network: 7
  RLT: 2
  Relax-and-lift: 37

Explored 3 nodes (13516 simplex iterations) in 10.70 seconds (18.01 work units)
Thread count was 1 (of 20 available processors)

Solution count 0

Model is infeasible
Best objective -, best bound -, gap -

User-callback calls 4788, time in user-callback 0.00 sec
